86
38
137
59
203
65
188
24
211
94
0 0 0
0 6 3
1 0 16
0 4 21
0 5 22
0 7 24
0 9 22
2 0 34
0 1 38
3 0 46
4 0 51
5 0 56
6 0 58
0 3 59
1 5 68
1 6 70
2 6 74
1 9 89
2 9 94
3 9 90
0 8 97
1 8 103
2 8 100
4 9 107
5 9 122
7 0 119
8 0 132
0 2 131
1 2 137
2 2 135
3 2 145
4 2 158
5 2 164
6 2 171
7 2 171
8 2 183
9 2 191
1 4 204
3 6 208
4 6 213
3 8 214
